# Solution for model r3_t9_m0_9
# Finished Task: 3 / 9
# Makespan: 483.0, Total Distance: 77.0, Total Time: 0.2840
# R O S F
0 0 5 233.0 233.0
1 1 -1 224.0 224.0
2 2 -1 191.0 191.0
3 0 -1 454.0 483.0
4 -1 -1 581.0 606.0
5 0 8 327.0 358.0
6 -1 -1 483.0 512.0
7 -1 -1 547.0 581.0
8 0 3 411.0 442.0
9 -1 -1 606.0 635.0
10 -1 -1 635.0 667.0
11 -1 -1 512.0 547.0
